c File: flat50_3_0.col
c
c SOURCE: Joseph Culberson (joe@cs.ualberta.ca)
c DESCRIPTION: Quasi-random coloring problem
c              generated with flatness = 0
c                             probability = 0.139
c                             known coloring = 3
c                             random seed = 1549
c              Creation Date:  Tue Jun  9 12:12:01 1998
c Maximum degree = 8 Minimum degree = 0
c p edge 50 115
c cnf created by edge2cnf
p cnf 150 545
-1 -2 0
-1 -3 0
-2 -3 0
1 2 3 0
-4 -5 0
-4 -6 0
-5 -6 0
4 5 6 0
-7 -8 0
-7 -9 0
-8 -9 0
7 8 9 0
-10 -11 0
-10 -12 0
-11 -12 0
10 11 12 0
-13 -14 0
-13 -15 0
-14 -15 0
13 14 15 0
-16 -17 0
-16 -18 0
-17 -18 0
16 17 18 0
-19 -20 0
-19 -21 0
-20 -21 0
19 20 21 0
-22 -23 0
-22 -24 0
-23 -24 0
22 23 24 0
-25 -26 0
-25 -27 0
-26 -27 0
25 26 27 0
-28 -29 0
-28 -30 0
-29 -30 0
28 29 30 0
-31 -32 0
-31 -33 0
-32 -33 0
31 32 33 0
-34 -35 0
-34 -36 0
-35 -36 0
34 35 36 0
-37 -38 0
-37 -39 0
-38 -39 0
37 38 39 0
-40 -41 0
-40 -42 0
-41 -42 0
40 41 42 0
-43 -44 0
-43 -45 0
-44 -45 0
43 44 45 0
-46 -47 0
-46 -48 0
-47 -48 0
46 47 48 0
-49 -50 0
-49 -51 0
-50 -51 0
49 50 51 0
-52 -53 0
-52 -54 0
-53 -54 0
52 53 54 0
-55 -56 0
-55 -57 0
-56 -57 0
55 56 57 0
-58 -59 0
-58 -60 0
-59 -60 0
58 59 60 0
-61 -62 0
-61 -63 0
-62 -63 0
61 62 63 0
-64 -65 0
-64 -66 0
-65 -66 0
64 65 66 0
-67 -68 0
-67 -69 0
-68 -69 0
67 68 69 0
-70 -71 0
-70 -72 0
-71 -72 0
70 71 72 0
-73 -74 0
-73 -75 0
-74 -75 0
73 74 75 0
-76 -77 0
-76 -78 0
-77 -78 0
76 77 78 0
-79 -80 0
-79 -81 0
-80 -81 0
79 80 81 0
-82 -83 0
-82 -84 0
-83 -84 0
82 83 84 0
-85 -86 0
-85 -87 0
-86 -87 0
85 86 87 0
-88 -89 0
-88 -90 0
-89 -90 0
88 89 90 0
-91 -92 0
-91 -93 0
-92 -93 0
91 92 93 0
-94 -95 0
-94 -96 0
-95 -96 0
94 95 96 0
-97 -98 0
-97 -99 0
-98 -99 0
97 98 99 0
-100 -101 0
-100 -102 0
-101 -102 0
100 101 102 0
-103 -104 0
-103 -105 0
-104 -105 0
103 104 105 0
-106 -107 0
-106 -108 0
-107 -108 0
106 107 108 0
-109 -110 0
-109 -111 0
-110 -111 0
109 110 111 0
-112 -113 0
-112 -114 0
-113 -114 0
112 113 114 0
-115 -116 0
-115 -117 0
-116 -117 0
115 116 117 0
-118 -119 0
-118 -120 0
-119 -120 0
118 119 120 0
-121 -122 0
-121 -123 0
-122 -123 0
121 122 123 0
-124 -125 0
-124 -126 0
-125 -126 0
124 125 126 0
-127 -128 0
-127 -129 0
-128 -129 0
127 128 129 0
-130 -131 0
-130 -132 0
-131 -132 0
130 131 132 0
-133 -134 0
-133 -135 0
-134 -135 0
133 134 135 0
-136 -137 0
-136 -138 0
-137 -138 0
136 137 138 0
-139 -140 0
-139 -141 0
-140 -141 0
139 140 141 0
-142 -143 0
-142 -144 0
-143 -144 0
142 143 144 0
-145 -146 0
-145 -147 0
-146 -147 0
145 146 147 0
-148 -149 0
-148 -150 0
-149 -150 0
148 149 150 0
-91 -1 0
-92 -2 0
-93 -3 0
-100 -1 0
-101 -2 0
-102 -3 0
-109 -1 0
-110 -2 0
-111 -3 0
-136 -1 0
-137 -2 0
-138 -3 0
-52 -4 0
-53 -5 0
-54 -6 0
-67 -4 0
-68 -5 0
-69 -6 0
-91 -4 0
-92 -5 0
-93 -6 0
-85 -7 0
-86 -8 0
-87 -9 0
-100 -7 0
-101 -8 0
-102 -9 0
-109 -7 0
-110 -8 0
-111 -9 0
-112 -7 0
-113 -8 0
-114 -9 0
-133 -7 0
-134 -8 0
-135 -9 0
-55 -10 0
-56 -11 0
-57 -12 0
-82 -10 0
-83 -11 0
-84 -12 0
-85 -10 0
-86 -11 0
-87 -12 0
-97 -10 0
-98 -11 0
-99 -12 0
-109 -10 0
-110 -11 0
-111 -12 0
-121 -10 0
-122 -11 0
-123 -12 0
-130 -10 0
-131 -11 0
-132 -12 0
-67 -13 0
-68 -14 0
-69 -15 0
-73 -13 0
-74 -14 0
-75 -15 0
-88 -16 0
-89 -17 0
-90 -18 0
-91 -16 0
-92 -17 0
-93 -18 0
-103 -16 0
-104 -17 0
-105 -18 0
-109 -16 0
-110 -17 0
-111 -18 0
-133 -16 0
-134 -17 0
-135 -18 0
-55 -19 0
-56 -20 0
-57 -21 0
-58 -19 0
-59 -20 0
-60 -21 0
-76 -19 0
-77 -20 0
-78 -21 0
-97 -19 0
-98 -20 0
-99 -21 0
-103 -19 0
-104 -20 0
-105 -21 0
-118 -19 0
-119 -20 0
-120 -21 0
-136 -19 0
-137 -20 0
-138 -21 0
-55 -22 0
-56 -23 0
-57 -24 0
-97 -22 0
-98 -23 0
-99 -24 0
-118 -22 0
-119 -23 0
-120 -24 0
-121 -22 0
-122 -23 0
-123 -24 0
-124 -22 0
-125 -23 0
-126 -24 0
-130 -22 0
-131 -23 0
-132 -24 0
-58 -25 0
-59 -26 0
-60 -27 0
-85 -25 0
-86 -26 0
-87 -27 0
-112 -25 0
-113 -26 0
-114 -27 0
-142 -25 0
-143 -26 0
-144 -27 0
-148 -25 0
-149 -26 0
-150 -27 0
-67 -28 0
-68 -29 0
-69 -30 0
-73 -28 0
-74 -29 0
-75 -30 0
-94 -28 0
-95 -29 0
-96 -30 0
-115 -28 0
-116 -29 0
-117 -30 0
-58 -31 0
-59 -32 0
-60 -33 0
-82 -31 0
-83 -32 0
-84 -33 0
-85 -31 0
-86 -32 0
-87 -33 0
-100 -31 0
-101 -32 0
-102 -33 0
-118 -31 0
-119 -32 0
-120 -33 0
-79 -34 0
-80 -35 0
-81 -36 0
-94 -34 0
-95 -35 0
-96 -36 0
-103 -34 0
-104 -35 0
-105 -36 0
-112 -34 0
-113 -35 0
-114 -36 0
-130 -34 0
-131 -35 0
-132 -36 0
-58 -37 0
-59 -38 0
-60 -39 0
-73 -40 0
-74 -41 0
-75 -42 0
-76 -40 0
-77 -41 0
-78 -42 0
-91 -40 0
-92 -41 0
-93 -42 0
-103 -40 0
-104 -41 0
-105 -42 0
-106 -40 0
-107 -41 0
-108 -42 0
-115 -40 0
-116 -41 0
-117 -42 0
-136 -40 0
-137 -41 0
-138 -42 0
-64 -43 0
-65 -44 0
-66 -45 0
-112 -43 0
-113 -44 0
-114 -45 0
-133 -43 0
-134 -44 0
-135 -45 0
-142 -43 0
-143 -44 0
-144 -45 0
-106 -46 0
-107 -47 0
-108 -48 0
-118 -46 0
-119 -47 0
-120 -48 0
-121 -46 0
-122 -47 0
-123 -48 0
-124 -46 0
-125 -47 0
-126 -48 0
-52 -49 0
-53 -50 0
-54 -51 0
-55 -49 0
-56 -50 0
-57 -51 0
-94 -49 0
-95 -50 0
-96 -51 0
-130 -49 0
-131 -50 0
-132 -51 0
-103 -52 0
-104 -53 0
-105 -54 0
-115 -52 0
-116 -53 0
-117 -54 0
-121 -52 0
-122 -53 0
-123 -54 0
-133 -52 0
-134 -53 0
-135 -54 0
-121 -55 0
-122 -56 0
-123 -57 0
-112 -58 0
-113 -59 0
-114 -60 0
-121 -58 0
-122 -59 0
-123 -60 0
-133 -61 0
-134 -62 0
-135 -63 0
-139 -61 0
-140 -62 0
-141 -63 0
-112 -64 0
-113 -65 0
-114 -66 0
-121 -64 0
-122 -65 0
-123 -66 0
-127 -64 0
-128 -65 0
-129 -66 0
-106 -67 0
-107 -68 0
-108 -69 0
-106 -70 0
-107 -71 0
-108 -72 0
-139 -70 0
-140 -71 0
-141 -72 0
-148 -70 0
-149 -71 0
-150 -72 0
-109 -73 0
-110 -74 0
-111 -75 0
-112 -73 0
-113 -74 0
-114 -75 0
-127 -73 0
-128 -74 0
-129 -75 0
-115 -76 0
-116 -77 0
-117 -78 0
-124 -76 0
-125 -77 0
-126 -78 0
-127 -76 0
-128 -77 0
-129 -78 0
-130 -79 0
-131 -80 0
-132 -81 0
-142 -79 0
-143 -80 0
-144 -81 0
-109 -82 0
-110 -83 0
-111 -84 0
-142 -88 0
-143 -89 0
-144 -90 0
-148 -88 0
-149 -89 0
-150 -90 0
-106 -91 0
-107 -92 0
-108 -93 0
-136 -91 0
-137 -92 0
-138 -93 0
-148 -91 0
-149 -92 0
-150 -93 0
-112 -94 0
-113 -95 0
-114 -96 0
-118 -94 0
-119 -95 0
-120 -96 0
-130 -94 0
-131 -95 0
-132 -96 0
-103 -100 0
-104 -101 0
-105 -102 0
-106 -100 0
-107 -101 0
-108 -102 0
-139 -100 0
-140 -101 0
-141 -102 0
-148 -100 0
-149 -101 0
-150 -102 0
